NAME : hola//resumen/Partial_Problem_1_1.txt
COMMENT : 
TYPE : TSP
DIMENSION : 13
EDGE_WEIGHT_TYPE : GEOM
NODE_COORD_SECTION
1	30	40
2	38	46
3	37	52
4	42	57
5	43	67
6	37	69
7	31	62
8	27	68
9	17	63
10	5	64
11	8	52
12	16	57
13	25	55
EOF
